470
0 32 61 83 125 143 196 215 251 279 
32 40 55 104 184 236 255 292 315 366 
40 65 120 147 215 236 260 276 292 362 
65 89 147 188 224 239 256 304 319 381 
89 116 145 188 209 224 248 278 335 379 
0 116 145 217 256 313 329 386 411 445 
32 52 131 236 302 315 379 411 432 444 
47 55 84 209 234 332 354 386 406 417 
0 41 51 84 104 125 224 250 260 276 
41 61 68 128 255 288 319 348 398 417 
